p cnf 162 276
c ind 1 2 3 4 5 6 7 8 0
-1 1 9 0
-1 3 10 0
-3 1 11 0
-3 3 12 0
-1 5 13 0
-1 7 14 0
-3 5 15 0
-3 7 16 0
-5 1 17 0
-5 3 18 0
-7 1 19 0
-7 3 20 0
-5 5 21 0
-5 7 22 0
-7 5 23 0
-7 7 24 0
-2 2 9 0
-2 4 10 0
-4 2 11 0
-4 4 12 0
-2 6 13 0
-2 8 14 0
-4 6 15 0
-4 8 16 0
-6 2 17 0
-6 4 18 0
-8 2 19 0
-8 4 20 0
-6 6 21 0
-6 8 22 0
-8 6 23 0
-8 8 24 0
-1 -1 -9 0
-5 -1 -10 0
-3 -3 -9 0
-7 -3 -10 0
-1 -5 -11 0
-5 -5 -12 0
-3 -7 -11 0
-7 -7 -12 0
-1 -2 -13 0
-5 -2 -14 0
-3 -4 -13 0
-7 -4 -14 0
-1 -6 -15 0
-5 -6 -16 0
-3 -8 -15 0
-7 -8 -16 0
-2 -1 -17 0
-6 -1 -18 0
-4 -3 -17 0
-8 -3 -18 0
-2 -5 -19 0
-6 -5 -20 0
-4 -7 -19 0
-8 -7 -20 0
-2 -2 -21 0
-6 -2 -22 0
-4 -4 -21 0
-8 -4 -22 0
-2 -6 -23 0
-6 -6 -24 0
-4 -8 -23 0
-8 -8 -24 0
-1 1 25 0
-1 3 26 0
-1 5 27 0
-1 7 28 0
-3 1 29 0
-3 3 30 0
-3 5 31 0
-3 7 32 0
-5 1 33 0
-5 3 34 0
-5 5 35 0
-5 7 36 0
-7 1 37 0
-7 3 38 0
-7 5 39 0
-7 7 40 0
-2 2 25 0
-2 4 26 0
-2 6 27 0
-2 8 28 0
-4 2 29 0
-4 4 30 0
-4 6 31 0
-4 8 32 0
-6 2 33 0
-6 4 34 0
-6 6 35 0
-6 8 36 0
-8 2 37 0
-8 4 38 0
-8 6 39 0
-8 8 40 0
-1 -1 41 0
-3 -1 42 0
-1 -3 43 0
-3 -3 44 0
-5 -5 41 0
-7 -5 42 0
-5 -7 43 0
-7 -7 44 0
-1 -2 45 0
-3 -2 46 0
-1 -4 47 0
-3 -4 48 0
-5 -6 45 0
-7 -6 46 0
-5 -8 47 0
-7 -8 48 0
-2 -1 49 0
-4 -1 50 0
-2 -3 51 0
-4 -3 52 0
-6 -5 49 0
-8 -5 50 0
-6 -7 51 0
-8 -7 52 0
-2 -2 53 0
-4 -2 54 0
-2 -4 55 0
-4 -4 56 0
-6 -6 53 0
-8 -6 54 0
-6 -8 55 0
-8 -8 56 0
-1 -1 57 0
-1 -3 58 0
-5 -5 57 0
-5 -7 58 0
-3 -1 59 0
-3 -3 60 0
-7 -5 59 0
-7 -7 60 0
-1 -2 61 0
-1 -4 62 0
-5 -6 61 0
-5 -8 62 0
-3 -2 63 0
-3 -4 64 0
-7 -6 63 0
-7 -8 64 0
-2 -1 65 0
-2 -3 66 0
-6 -5 65 0
-6 -7 66 0
-4 -1 67 0
-4 -3 68 0
-8 -5 67 0
-8 -7 68 0
-2 -2 69 0
-2 -4 70 0
-6 -6 69 0
-6 -8 70 0
-4 -2 71 0
-4 -4 72 0
-8 -6 71 0
-8 -8 72 0
-25 -41 -57 0
-25 -42 -58 0
-25 -43 -59 0
-25 -44 -60 0
-26 -41 -61 0
-26 -42 -62 0
-26 -43 -63 0
-26 -44 -64 0
-27 -45 -57 0
-27 -46 -58 0
-27 -47 -59 0
-27 -48 -60 0
-28 -45 -61 0
-28 -46 -62 0
-28 -47 -63 0
-28 -48 -64 0
-29 -41 -65 0
-29 -42 -66 0
-29 -43 -67 0
-29 -44 -68 0
-30 -41 -69 0
-30 -42 -70 0
-30 -43 -71 0
-30 -44 -72 0
-31 -45 -65 0
-31 -46 -66 0
-31 -47 -67 0
-31 -48 -68 0
-32 -45 -69 0
-32 -46 -70 0
-32 -47 -71 0
-32 -48 -72 0
-33 -49 -57 0
-33 -50 -58 0
-33 -51 -59 0
-33 -52 -60 0
-34 -49 -61 0
-34 -50 -62 0
-34 -51 -63 0
-34 -52 -64 0
-35 -53 -57 0
-35 -54 -58 0
-35 -55 -59 0
-35 -56 -60 0
-36 -53 -61 0
-36 -54 -62 0
-36 -55 -63 0
-36 -56 -64 0
-37 -49 -65 0
-37 -50 -66 0
-37 -51 -67 0
-37 -52 -68 0
-38 -49 -69 0
-38 -50 -70 0
-38 -51 -71 0
-38 -52 -72 0
-39 -53 -65 0
-39 -54 -66 0
-39 -55 -67 0
-39 -56 -68 0
-40 -53 -69 0
-40 -54 -70 0
-40 -55 -71 0
-40 -56 -72 0
1 2 0
-1 -2 0
3 4 0
-3 -4 0
5 6 0
-5 -6 0
7 8 0
-7 -8 0
-152 -1 7 0
-152 -2 0
-153 -1 8 0
-153 -2 7 0
152 153 0
152 154 0
-154 155 156 0
-154 155 157 0
-157 158 159 0
-157 158 160 0
-160 161 162 0
-155 -3 5 0
-155 -4 0
-156 -3 6 0
-156 -4 5 0
152 153 0
152 154 0
-154 155 156 0
-154 155 157 0
-157 158 159 0
-157 158 160 0
-160 161 162 0
-158 -5 3 0
-158 -6 0
-159 -5 4 0
-159 -6 3 0
152 153 0
152 154 0
-154 155 156 0
-154 155 157 0
-157 158 159 0
-157 158 160 0
-160 161 162 0
-161 -7 1 0
-161 -8 0
-162 -7 2 0
-162 -8 1 0
152 153 0
152 154 0
-154 155 156 0
-154 155 157 0
-157 158 159 0
-157 158 160 0
-160 161 162 0
